<number of tasks>
50

<cycle time>
1000

<order strength>
0.195


<task times>
1 482
2 529
3 357
4 706
5 518
6 499
7 528
8 476
9 360
10 371
11 761
12 312
13 499
14 460
15 435
16 473
17 379
18 476
19 589
20 571
21 535
22 528
23 440
24 665
25 509
26 570
27 582
28 658
29 375
30 733
31 494
32 381
33 498
34 556
35 576
36 357
37 640
38 307
39 764
40 706
41 379
42 685
43 635
44 633
45 595
46 237
47 346
48 419
49 571
50 555

<precedence relations>
1,11
2,10
4,7
4,8
4,9
5,6
6,13
6,18
7,14
7,17
7,18
7,20
8,15
9,16
9,43
11,12
11,36
12,23
13,32
15,49
16,20
17,19
17,21
17,22
20,44
21,25
21,29
21,44
22,48
23,24
23,26
23,27
23,28
23,39
24,33
25,34
26,30
28,35
29,31
29,32
31,36
31,37
31,38
33,37
33,42
34,39
34,40
34,43
34,48
35,41
36,46
37,43
37,45
40,50
41,49
42,44
42,47
42,48

<end>
